language ESSENCE' 1.0

letting fixed be 
[
    [0,0,0,0,3,0,0,8,6],
    [0,0,0,0,2,0,0,4,0],
    [0,9,0,0,7,8,5,2,0],
    [3,7,1,8,5,6,2,9,4],
    [9,0,0,1,4,2,3,7,5],
    [4,0,0,3,9,7,6,1,8],
    [2,0,0,7,0,3,8,5,9],
    [0,3,9,2,0,5,4,6,7],
    [7,0,0,9,0,4,1,3,2]
]

